webassembly/ejemplos_dzn/16/folder16_json_4.dzn
TERM = { '.', 's(5)', 's(2)', 's(4)', 'in_1', 'local_0', 'local_1', 'in_2', 'in_4', 'in_3', 's(6)', 's(1)', 's(0)', 's(3)', 'in_0'};
null = '.';
s = 16;
n = 10;
ndeps = 5;
max_registers_sz = 5;
NR = 2;
registers = [|'local_0', 's(6)', |'local_1', 's(0)'|];
dependencies = [|'i32.load8_u_1', 'call[function_index(0)]_8', |'call[function_index(0)]_8', 'i32.store_9', |'i32.store_9', 'i32.store8_11', |'i32.store8_11', 'i32.load16_u_12', |'i32.load16_u_12', 'i32.store16_14'|];
GET_ENUM = { GET1, GET2, GET3, GET4, GET5, GET6, GET7};
SET_ENUM = { SET1, SET2, SET3, SET4, SET5, SET6, SET7};
TEE_ENUM = { TEE1, TEE2, TEE3, TEE4, TEE5, TEE6, TEE7};
N = 8;
OP = { 'i32.sub_0', 'i32.add_0', 'call[function_index(0)]_8', 'i32.load8_u_1', 'i32.store_9', 'i32.store8_11', 'i32.load16_u_12', 'i32.store16_14' };
in_ops = [2, 2, 1, 1, 2, 2, 1, 2 ];
out_ops = [1, 1, 3, 1, 0, 0, 1, 0 ];
in1 = ['s(0)', 's(0)', 's(2)', 'in_1', 's(5)', 's(0)', 'in_3', 's(6)' ];
in2 = ['in_2', 's(1)', '.', '.', 's(4)', 's(3)', '.', 'in_4' ];
in3 = ['.', '.', '.', '.', '.', '.', '.', '.' ];
out1 = ['s(1)', 's(2)', 's(5)', 's(0)', '.', '.', 's(6)', '.' ];
out2 = ['.', '.', 's(4)', '.', '.', '.', '.', '.' ];
out3 = ['.', '.', 's(3)', '.', '.', '.', '.', '.' ];
comm = [false, true, false, false, false, false, false, false ];
gas = [1, 1, 1, 1, 1, 1, 1, 1 ];
sz = [1, 1, 1, 1, 1, 1, 1, 1 ];
stor = [false, false, true, false, true, true, false, true ];
lb = [ 1, 1, 1, 1, 1, 1, 1, 1 ];
ub = [ 16, 16, 16, 16, 16, 16, 16, 16 ];
startstack = [ 'in_0', 'in_1', 'in_2', 'in_3', 'in_4', null, null, null, null, null ];
endstack = [ 's(6)', null, null, null, null, null, null, null, null, null ];
