webassembly/ejemplos_results/16/folder16_json_4.txt
value = 16;
fgas = [1, 2, 1, 1, 1, 1, 1, 1, 1, 1, 1, 1, 1, 1, 1, 1];
fsize = [1, 1, 1, 1, 1, 1, 1, 1, 1, 1, 1, 1, 1, 1, 1, 1];
states = 
[|   in_0,   in_1,   in_2, in_3, in_4, '.', '.', '.', '.', '.'
 |   in_0,   in_1,   in_2, in_3, in_4, '.', '.', '.', '.', '.'
 |   in_1,   in_2,   in_3, in_4,  '.', '.', '.', '.', '.', '.'
 | 's(0)',   in_2,   in_3, in_4,  '.', '.', '.', '.', '.', '.'
 | 's(0)',   in_2,   in_3, in_4,  '.', '.', '.', '.', '.', '.'
 | 's(0)',   in_2,   in_3, in_4,  '.', '.', '.', '.', '.', '.'
 | 's(0)',   in_2,   in_3, in_4,  '.', '.', '.', '.', '.', '.'
 | 's(1)', 's(6)',   in_4,  '.',  '.', '.', '.', '.', '.', '.'
 | 's(6)',   in_4,    '.',  '.',  '.', '.', '.', '.', '.', '.'
 | 's(0)', 's(3)',    '.',  '.',  '.', '.', '.', '.', '.', '.'
 | 's(1)', 's(0)',    '.',  '.',  '.', '.', '.', '.', '.', '.'
 | 's(2)',   in_0,    '.',  '.',  '.', '.', '.', '.', '.', '.'
 | 's(5)', 's(4)', 's(3)', in_0,  '.', '.', '.', '.', '.', '.'
 |   in_3,   in_4,    '.',  '.',  '.', '.', '.', '.', '.', '.'
 | 's(6)',   in_4,    '.',  '.',  '.', '.', '.', '.', '.', '.'
 | 's(6)',   in_4,    '.',  '.',  '.', '.', '.', '.', '.', '.'
 | 's(6)',    '.',    '.',  '.',  '.', '.', '.', '.', '.', '.'
 |];
register_states = 
[| local_0, local_1, '.', '.', '.', '.', '.'
 |    in_0, local_1, '.', '.', '.', '.', '.'
 |    in_0, local_1, '.', '.', '.', '.', '.'
 |    in_0, local_1, '.', '.', '.', '.', '.'
 |  's(0)', local_1, '.', '.', '.', '.', '.'
 |  's(0)',  's(0)', '.', '.', '.', '.', '.'
 |  's(0)',  's(0)', '.', '.', '.', '.', '.'
 |  's(0)',  's(0)', '.', '.', '.', '.', '.'
 |  's(1)',  's(0)', '.', '.', '.', '.', '.'
 |  's(1)',  's(0)', '.', '.', '.', '.', '.'
 |  's(1)',  's(0)', '.', '.', '.', '.', '.'
 |  's(1)',  's(0)', '.', '.', '.', '.', '.'
 |  's(1)',  's(0)', '.', '.', '.', '.', '.'
 |  's(1)',  's(0)', '.', '.', '.', '.', '.'
 |  's(1)',  's(0)', '.', '.', '.', '.', '.'
 |  's(6)',  's(0)', '.', '.', '.', '.', '.'
 |  's(6)',  's(0)', '.', '.', '.', '.', '.'
 |];
program = [TEE(TEE1), POP, O('i32.load8_u_1'), TEE(TEE1), TEE(TEE2), TEE(TEE1), O('i32.sub_0'), S(SET1), O('i32.store16_14'), O('i32.store8_11'), O('i32.add_0'), O('call[function_index(0)]_8'), O('i32.store_9'), O('i32.load16_u_12'), TEE(TEE1), O('i32.store16_14')];
% time elapsed: 0.45 s
----------
value = 15;
fgas = [1, 1, 1, 1, 1, 1, 1, 1, 1, 1, 1, 1, 1, 1, 1, 0];
fsize = [1, 1, 1, 1, 1, 1, 1, 1, 1, 1, 1, 1, 1, 1, 1, 1];
states = 
[|   in_0,   in_1,   in_2, in_3, in_4, '.', '.', '.', '.', '.'
 |   in_1,   in_2,   in_3, in_4,  '.', '.', '.', '.', '.', '.'
 | 's(0)',   in_2,   in_3, in_4,  '.', '.', '.', '.', '.', '.'
 | 's(1)', 's(6)',   in_4,  '.',  '.', '.', '.', '.', '.', '.'
 | 's(1)', 's(6)',   in_4,  '.',  '.', '.', '.', '.', '.', '.'
 | 's(6)',   in_4,    '.',  '.',  '.', '.', '.', '.', '.', '.'
 | 's(6)',   in_4,    '.',  '.',  '.', '.', '.', '.', '.', '.'
 | 's(6)',   in_4,    '.',  '.',  '.', '.', '.', '.', '.', '.'
 | 's(6)',   in_4,    '.',  '.',  '.', '.', '.', '.', '.', '.'
 | 's(0)', 's(1)',    '.',  '.',  '.', '.', '.', '.', '.', '.'
 | 's(0)', 's(1)',    '.',  '.',  '.', '.', '.', '.', '.', '.'
 | 's(2)',   in_0,    '.',  '.',  '.', '.', '.', '.', '.', '.'
 | 's(5)', 's(4)', 's(3)', in_0,  '.', '.', '.', '.', '.', '.'
 | 's(0)', 's(3)',    '.',  '.',  '.', '.', '.', '.', '.', '.'
 |   in_3,    '.',    '.',  '.',  '.', '.', '.', '.', '.', '.'
 | 's(6)',    '.',    '.',  '.',  '.', '.', '.', '.', '.', '.'
 | 's(6)',    '.',    '.',  '.',  '.', '.', '.', '.', '.', '.'
 |];
register_states = 
[| local_0, local_1, '.', '.', '.', '.', '.'
 |    in_0, local_1, '.', '.', '.', '.', '.'
 |    in_0, local_1, '.', '.', '.', '.', '.'
 |    in_0, local_1, '.', '.', '.', '.', '.'
 |    in_0,  's(1)', '.', '.', '.', '.', '.'
 |  's(1)',  's(1)', '.', '.', '.', '.', '.'
 |  's(6)',  's(1)', '.', '.', '.', '.', '.'
 |  's(6)',  's(6)', '.', '.', '.', '.', '.'
 |  's(6)',  's(6)', '.', '.', '.', '.', '.'
 |  's(6)',  's(6)', '.', '.', '.', '.', '.'
 |  's(6)',  's(0)', '.', '.', '.', '.', '.'
 |  's(6)',  's(0)', '.', '.', '.', '.', '.'
 |  's(6)',  's(0)', '.', '.', '.', '.', '.'
 |  's(6)',  's(0)', '.', '.', '.', '.', '.'
 |  's(6)',  's(0)', '.', '.', '.', '.', '.'
 |  's(6)',  's(0)', '.', '.', '.', '.', '.'
 |  's(6)',  's(0)', '.', '.', '.', '.', '.'
 |];
program = [S(SET1), O('i32.load8_u_1'), O('i32.sub_0'), TEE(TEE2), S(SET1), TEE(TEE1), TEE(TEE2), TEE(TEE2), O('i32.store16_14'), TEE(TEE2), O('i32.add_0'), O('call[function_index(0)]_8'), O('i32.store_9'), O('i32.store8_11'), O('i32.load16_u_12'), NOP];
% time elapsed: 0.50 s
----------
value = 14;
fgas = [1, 1, 1, 1, 1, 1, 1, 1, 1, 1, 1, 1, 1, 1, 0, 0];
fsize = [1, 1, 1, 1, 1, 1, 1, 1, 1, 1, 1, 1, 1, 1, 1, 1];
states = 
[|   in_0,   in_1,   in_2, in_3, in_4, '.', '.', '.', '.', '.'
 |   in_1,   in_2,   in_3, in_4,  '.', '.', '.', '.', '.', '.'
 |   in_1,   in_2,   in_3, in_4,  '.', '.', '.', '.', '.', '.'
 | 's(0)',   in_2,   in_3, in_4,  '.', '.', '.', '.', '.', '.'
 | 's(0)',   in_2,   in_3, in_4,  '.', '.', '.', '.', '.', '.'
 | 's(0)',   in_2,   in_3, in_4,  '.', '.', '.', '.', '.', '.'
 | 's(1)', 's(0)',   in_4,  '.',  '.', '.', '.', '.', '.', '.'
 | 's(1)', 's(0)',   in_4,  '.',  '.', '.', '.', '.', '.', '.'
 | 's(2)',   in_0,    '.',  '.',  '.', '.', '.', '.', '.', '.'
 | 's(5)', 's(4)', 's(3)', in_0,  '.', '.', '.', '.', '.', '.'
 | 's(6)',   in_4,    '.',  '.',  '.', '.', '.', '.', '.', '.'
 | 's(6)',   in_4,    '.',  '.',  '.', '.', '.', '.', '.', '.'
 | 's(0)', 's(3)',    '.',  '.',  '.', '.', '.', '.', '.', '.'
 |   in_3,    '.',    '.',  '.',  '.', '.', '.', '.', '.', '.'
 | 's(6)',    '.',    '.',  '.',  '.', '.', '.', '.', '.', '.'
 | 's(6)',    '.',    '.',  '.',  '.', '.', '.', '.', '.', '.'
 | 's(6)',    '.',    '.',  '.',  '.', '.', '.', '.', '.', '.'
 |];
register_states = 
[| local_0, local_1, '.', '.', '.', '.', '.'
 |    in_0, local_1, '.', '.', '.', '.', '.'
 |    in_0,    in_1, '.', '.', '.', '.', '.'
 |    in_0,    in_1, '.', '.', '.', '.', '.'
 |    in_0,  's(0)', '.', '.', '.', '.', '.'
 |  's(0)',  's(0)', '.', '.', '.', '.', '.'
 |  's(0)',  's(0)', '.', '.', '.', '.', '.'
 |  's(1)',  's(0)', '.', '.', '.', '.', '.'
 |  's(1)',  's(0)', '.', '.', '.', '.', '.'
 |  's(1)',  's(0)', '.', '.', '.', '.', '.'
 |  's(1)',  's(0)', '.', '.', '.', '.', '.'
 |  's(6)',  's(0)', '.', '.', '.', '.', '.'
 |  's(6)',  's(0)', '.', '.', '.', '.', '.'
 |  's(6)',  's(0)', '.', '.', '.', '.', '.'
 |  's(6)',  's(0)', '.', '.', '.', '.', '.'
 |  's(6)',  's(0)', '.', '.', '.', '.', '.'
 |  's(6)',  's(0)', '.', '.', '.', '.', '.'
 |];
program = [S(SET1), TEE(TEE2), O('i32.load8_u_1'), TEE(TEE2), TEE(TEE1), O('i32.sub_0'), TEE(TEE1), O('i32.add_0'), O('call[function_index(0)]_8'), O('i32.store_9'), TEE(TEE1), O('i32.store16_14'), O('i32.store8_11'), O('i32.load16_u_12'), NOP, NOP];
% time elapsed: 0.77 s
----------
value = 13;
fgas = [2, 1, 1, 2, 1, 1, 1, 1, 1, 1, 1, 1, 1, 0, 0, 0];
fsize = [1, 1, 1, 1, 1, 1, 1, 1, 1, 1, 1, 1, 1, 1, 1, 1];
states = 
[|   in_0,   in_1,   in_2, in_3, in_4, '.', '.', '.', '.', '.'
 |   in_1,   in_2,   in_3, in_4,  '.', '.', '.', '.', '.', '.'
 | 's(0)',   in_2,   in_3, in_4,  '.', '.', '.', '.', '.', '.'
 |   in_2,   in_3,   in_4,  '.',  '.', '.', '.', '.', '.', '.'
 |   in_3,   in_4,    '.',  '.',  '.', '.', '.', '.', '.', '.'
 | 's(6)',   in_4,    '.',  '.',  '.', '.', '.', '.', '.', '.'
 | 's(6)',   in_4,    '.',  '.',  '.', '.', '.', '.', '.', '.'
 | 's(0)', 's(3)',    '.',  '.',  '.', '.', '.', '.', '.', '.'
 | 's(2)',   in_0,    '.',  '.',  '.', '.', '.', '.', '.', '.'
 | 's(5)', 's(4)', 's(3)', in_0,  '.', '.', '.', '.', '.', '.'
 | 's(0)',   in_2,    '.',  '.',  '.', '.', '.', '.', '.', '.'
 | 's(1)', 's(0)',    '.',  '.',  '.', '.', '.', '.', '.', '.'
 | 's(2)', 's(6)',    '.',  '.',  '.', '.', '.', '.', '.', '.'
 | 's(6)',    '.',    '.',  '.',  '.', '.', '.', '.', '.', '.'
 | 's(6)',    '.',    '.',  '.',  '.', '.', '.', '.', '.', '.'
 | 's(6)',    '.',    '.',  '.',  '.', '.', '.', '.', '.', '.'
 | 's(6)',    '.',    '.',  '.',  '.', '.', '.', '.', '.', '.'
 |];
register_states = 
[| local_0, local_1, '.', '.', '.', '.', '.'
 | local_0, local_1, '.', '.', '.', '.', '.'
 | local_0, local_1, '.', '.', '.', '.', '.'
 | local_0,  's(0)', '.', '.', '.', '.', '.'
 | local_0,  's(0)', '.', '.', '.', '.', '.'
 | local_0,  's(0)', '.', '.', '.', '.', '.'
 |  's(6)',  's(0)', '.', '.', '.', '.', '.'
 |  's(6)',  's(0)', '.', '.', '.', '.', '.'
 |  's(6)',  's(0)', '.', '.', '.', '.', '.'
 |  's(6)',  's(0)', '.', '.', '.', '.', '.'
 |  's(6)',  's(0)', '.', '.', '.', '.', '.'
 |  's(6)',  's(0)', '.', '.', '.', '.', '.'
 |  's(6)',  's(0)', '.', '.', '.', '.', '.'
 |  's(6)',  's(0)', '.', '.', '.', '.', '.'
 |  's(6)',  's(0)', '.', '.', '.', '.', '.'
 |  's(6)',  's(0)', '.', '.', '.', '.', '.'
 |  's(6)',  's(0)', '.', '.', '.', '.', '.'
 |];
program = [POP, O('i32.load8_u_1'), S(SET2), POP, O('i32.load16_u_12'), TEE(TEE1), O('i32.store16_14'), O('i32.store8_11'), O('call[function_index(0)]_8'), O('i32.store_9'), O('i32.sub_0'), O('i32.add_0'), G(GET1), NOP, NOP, NOP];
% time elapsed: 0.78 s
----------
value = 12;
fgas = [1, 1, 1, 1, 1, 1, 1, 1, 1, 1, 1, 1, 0, 0, 0, 0];
fsize = [1, 1, 1, 1, 1, 1, 1, 1, 1, 1, 1, 1, 1, 1, 1, 1];
states = 
[|   in_0,   in_1,   in_2, in_3, in_4, '.', '.', '.', '.', '.'
 |   in_1,   in_2,   in_3, in_4,  '.', '.', '.', '.', '.', '.'
 |   in_1,   in_2,   in_3, in_4,  '.', '.', '.', '.', '.', '.'
 | 's(0)',   in_2,   in_3, in_4,  '.', '.', '.', '.', '.', '.'
 | 's(0)',   in_2,   in_3, in_4,  '.', '.', '.', '.', '.', '.'
 | 's(1)', 's(0)',   in_4,  '.',  '.', '.', '.', '.', '.', '.'
 | 's(2)',   in_0,    '.',  '.',  '.', '.', '.', '.', '.', '.'
 | 's(5)', 's(4)', 's(3)', in_0,  '.', '.', '.', '.', '.', '.'
 | 's(6)',   in_4,    '.',  '.',  '.', '.', '.', '.', '.', '.'
 | 's(6)',   in_4,    '.',  '.',  '.', '.', '.', '.', '.', '.'
 | 's(0)', 's(3)',    '.',  '.',  '.', '.', '.', '.', '.', '.'
 |   in_3,    '.',    '.',  '.',  '.', '.', '.', '.', '.', '.'
 | 's(6)',    '.',    '.',  '.',  '.', '.', '.', '.', '.', '.'
 | 's(6)',    '.',    '.',  '.',  '.', '.', '.', '.', '.', '.'
 | 's(6)',    '.',    '.',  '.',  '.', '.', '.', '.', '.', '.'
 | 's(6)',    '.',    '.',  '.',  '.', '.', '.', '.', '.', '.'
 | 's(6)',    '.',    '.',  '.',  '.', '.', '.', '.', '.', '.'
 |];
register_states = 
[| local_0, local_1, '.', '.', '.', '.', '.'
 | local_0,    in_0, '.', '.', '.', '.', '.'
 |    in_1,    in_0, '.', '.', '.', '.', '.'
 |    in_1,    in_0, '.', '.', '.', '.', '.'
 |    in_1,  's(0)', '.', '.', '.', '.', '.'
 |    in_1,  's(0)', '.', '.', '.', '.', '.'
 |    in_1,  's(0)', '.', '.', '.', '.', '.'
 |    in_1,  's(0)', '.', '.', '.', '.', '.'
 |    in_1,  's(0)', '.', '.', '.', '.', '.'
 |  's(6)',  's(0)', '.', '.', '.', '.', '.'
 |  's(6)',  's(0)', '.', '.', '.', '.', '.'
 |  's(6)',  's(0)', '.', '.', '.', '.', '.'
 |  's(6)',  's(0)', '.', '.', '.', '.', '.'
 |  's(6)',  's(0)', '.', '.', '.', '.', '.'
 |  's(6)',  's(0)', '.', '.', '.', '.', '.'
 |  's(6)',  's(0)', '.', '.', '.', '.', '.'
 |  's(6)',  's(0)', '.', '.', '.', '.', '.'
 |];
program = [S(SET2), TEE(TEE1), O('i32.load8_u_1'), TEE(TEE2), O('i32.sub_0'), O('i32.add_0'), O('call[function_index(0)]_8'), O('i32.store_9'), TEE(TEE1), O('i32.store16_14'), O('i32.store8_11'), O('i32.load16_u_12'), NOP, NOP, NOP, NOP];
% time elapsed: 0.83 s
----------
value = 11;
fgas = [2, 1, 1, 1, 1, 1, 1, 1, 1, 1, 1, 0, 0, 0, 0, 0];
fsize = [1, 1, 1, 1, 1, 1, 1, 1, 1, 1, 1, 1, 1, 1, 1, 1];
states = 
[|   in_0,   in_1,   in_2, in_3, in_4, '.', '.', '.', '.', '.'
 |   in_1,   in_2,   in_3, in_4,  '.', '.', '.', '.', '.', '.'
 | 's(0)',   in_2,   in_3, in_4,  '.', '.', '.', '.', '.', '.'
 | 's(1)', 's(0)',   in_4,  '.',  '.', '.', '.', '.', '.', '.'
 | 's(2)',   in_0,    '.',  '.',  '.', '.', '.', '.', '.', '.'
 | 's(5)', 's(4)', 's(3)', in_0,  '.', '.', '.', '.', '.', '.'
 | 's(0)', 's(3)',    '.',  '.',  '.', '.', '.', '.', '.', '.'
 | 's(6)',   in_4,    '.',  '.',  '.', '.', '.', '.', '.', '.'
 | 's(6)',   in_4,    '.',  '.',  '.', '.', '.', '.', '.', '.'
 | 's(0)',   in_3,    '.',  '.',  '.', '.', '.', '.', '.', '.'
 |   in_3,    '.',    '.',  '.',  '.', '.', '.', '.', '.', '.'
 | 's(6)',    '.',    '.',  '.',  '.', '.', '.', '.', '.', '.'
 | 's(6)',    '.',    '.',  '.',  '.', '.', '.', '.', '.', '.'
 | 's(6)',    '.',    '.',  '.',  '.', '.', '.', '.', '.', '.'
 | 's(6)',    '.',    '.',  '.',  '.', '.', '.', '.', '.', '.'
 | 's(6)',    '.',    '.',  '.',  '.', '.', '.', '.', '.', '.'
 | 's(6)',    '.',    '.',  '.',  '.', '.', '.', '.', '.', '.'
 |];
register_states = 
[| local_0, local_1, '.', '.', '.', '.', '.'
 | local_0, local_1, '.', '.', '.', '.', '.'
 | local_0, local_1, '.', '.', '.', '.', '.'
 | local_0, local_1, '.', '.', '.', '.', '.'
 | local_0, local_1, '.', '.', '.', '.', '.'
 | local_0, local_1, '.', '.', '.', '.', '.'
 | local_0, local_1, '.', '.', '.', '.', '.'
 | local_0, local_1, '.', '.', '.', '.', '.'
 |  's(6)', local_1, '.', '.', '.', '.', '.'
 |  's(6)', local_1, '.', '.', '.', '.', '.'
 |  's(6)',  's(0)', '.', '.', '.', '.', '.'
 |  's(6)',  's(0)', '.', '.', '.', '.', '.'
 |  's(6)',  's(0)', '.', '.', '.', '.', '.'
 |  's(6)',  's(0)', '.', '.', '.', '.', '.'
 |  's(6)',  's(0)', '.', '.', '.', '.', '.'
 |  's(6)',  's(0)', '.', '.', '.', '.', '.'
 |  's(6)',  's(0)', '.', '.', '.', '.', '.'
 |];
program = [POP, O('i32.load8_u_1'), O('i32.sub_0'), O('i32.add_0'), O('call[function_index(0)]_8'), O('i32.store_9'), O('i32.store8_11'), TEE(TEE1), O('i32.store16_14'), S(SET2), O('i32.load16_u_12'), NOP, NOP, NOP, NOP, NOP];
% time elapsed: 0.87 s
----------
==========
% time elapsed: 0.89 s
% [value > 10]
